10	5
0	3	3	1	2
1	1	8
2	1	7
3	2	5	7
4	1	9
5	1	11
6	2	8	4
7	1	6
8	1	11
9	2	1	11
10	1	11
11	0
0	0	0	0	0	0	0
1	1	5	1	5	3	3
2	10	5	3	0	3	3
3	8	4	4	1	5	4
4	1	0	0	4	3	3
5	7	5	2	2	5	0
6	6	3	4	1	0	0
7	6	3	1	0	0	1
8	7	1	1	0	3	0
9	4	5	1	3	4	4
10	5	0	5	1	2	0
11	0	0	0	0	0	0
8	6	5	6	6
